(set-info :original "/tmp/sea-40YQYp/sum01_true-unreach-call_true-termination.pp.ms.o.bc")
(set-info :authors "SeaHorn v.0.1.0-rc3")
(declare-rel verifier.error (Bool Bool Bool ))
(declare-rel main@entry (Int ))
(declare-rel main@.lr.ph (Int Int Int ))
(declare-rel main@precall.split ())
(declare-var main@%_7_0 Int )
(declare-var main@%_8_0 Bool )
(declare-var main@%_9_0 Bool )
(declare-var main@%..i_0 Bool )
(declare-var main@%_10_0 Bool )
(declare-var main@%_11_0 Bool )
(declare-var main@%_6_0 Bool )
(declare-var main@%.lcssa_1 Int )
(declare-var main@%i.0.i2_2 Int )
(declare-var main@%sn.0.i1_2 Int )
(declare-var main@%_0_0 Int )
(declare-var @__VERIFIER_nondet_int_0 Int )
(declare-var main@%.off.i_0 Int )
(declare-var main@%_2_0 Bool )
(declare-var main@%_3_0 Bool )
(declare-var main@entry_0 Bool )
(declare-var main@%_1_0 Int )
(declare-var main@.lr.ph.preheader_0 Bool )
(declare-var main@.lr.ph_0 Bool )
(declare-var main@%i.0.i2_0 Int )
(declare-var main@%sn.0.i1_0 Int )
(declare-var main@%i.0.i2_1 Int )
(declare-var main@%sn.0.i1_1 Int )
(declare-var main@precall_0 Bool )
(declare-var main@%sn.0.i.lcssa_0 Int )
(declare-var main@%sn.0.i.lcssa_1 Int )
(declare-var main@precall.split_0 Bool )
(declare-var main@%_4_0 Int )
(declare-var main@%_5_0 Int )
(declare-var main@.lr.ph_1 Bool )
(declare-var main@precall.loopexit_0 Bool )
(declare-var main@%.lcssa_0 Int )
(rule (verifier.error false false false))
(rule (verifier.error false true true))
(rule (verifier.error true false true))
(rule (verifier.error true true true))
(rule (main@entry @__VERIFIER_nondet_int_0))
(rule (let ((a!1 (and (main@entry @__VERIFIER_nondet_int_0)
                true
                (= main@%_0_0 @__VERIFIER_nondet_int_0)
                (= main@%.off.i_0 (+ main@%_1_0 1000))
                (= main@%_2_0
                   (ite (>= main@%.off.i_0 0) (< main@%.off.i_0 2000) false))
                main@%_2_0
                (= main@%_3_0 (< main@%_1_0 1))
                (=> main@.lr.ph.preheader_0
                    (and main@.lr.ph.preheader_0 main@entry_0))
                (=> (and main@.lr.ph.preheader_0 main@entry_0) (not main@%_3_0))
                (=> main@.lr.ph_0 (and main@.lr.ph_0 main@.lr.ph.preheader_0))
                main@.lr.ph_0
                (=> (and main@.lr.ph_0 main@.lr.ph.preheader_0)
                    (= main@%i.0.i2_0 1))
                (=> (and main@.lr.ph_0 main@.lr.ph.preheader_0)
                    (= main@%sn.0.i1_0 0))
                (=> (and main@.lr.ph_0 main@.lr.ph.preheader_0)
                    (= main@%i.0.i2_1 main@%i.0.i2_0))
                (=> (and main@.lr.ph_0 main@.lr.ph.preheader_0)
                    (= main@%sn.0.i1_1 main@%sn.0.i1_0)))))
  (=> a!1 (main@.lr.ph main@%_1_0 main@%sn.0.i1_1 main@%i.0.i2_1))))
(rule (let ((a!1 (and (main@entry @__VERIFIER_nondet_int_0)
                true
                (= main@%_0_0 @__VERIFIER_nondet_int_0)
                (= main@%.off.i_0 (+ main@%_1_0 1000))
                (= main@%_2_0
                   (ite (>= main@%.off.i_0 0) (< main@%.off.i_0 2000) false))
                main@%_2_0
                (= main@%_3_0 (< main@%_1_0 1))
                (=> main@precall_0 (and main@precall_0 main@entry_0))
                (=> (and main@precall_0 main@entry_0) main@%_3_0)
                (=> (and main@precall_0 main@entry_0)
                    (= main@%sn.0.i.lcssa_0 0))
                (=> (and main@precall_0 main@entry_0)
                    (= main@%sn.0.i.lcssa_1 main@%sn.0.i.lcssa_0))
                (=> main@precall_0 (= main@%_7_0 (* main@%_1_0 2)))
                (=> main@precall_0
                    (= main@%_8_0 (= main@%sn.0.i.lcssa_1 main@%_7_0)))
                (=> main@precall_0 (= main@%_9_0 (= main@%sn.0.i.lcssa_1 0)))
                (=> main@precall_0 (= main@%..i_0 (or main@%_8_0 main@%_9_0)))
                (=> main@precall_0 (not main@%_10_0))
                (=> main@precall_0 (= main@%_11_0 (= main@%..i_0 false)))
                (=> main@precall_0 main@%_11_0)
                (=> main@precall.split_0
                    (and main@precall.split_0 main@precall_0))
                main@precall.split_0)))
  (=> a!1 main@precall.split)))
(rule (=> (and (main@.lr.ph main@%_1_0 main@%sn.0.i1_0 main@%i.0.i2_0)
         true
         (= main@%_4_0 (+ main@%sn.0.i1_0 2))
         (= main@%_5_0 (+ main@%i.0.i2_0 1))
         (= main@%_6_0 (< main@%i.0.i2_0 main@%_1_0))
         (=> main@.lr.ph_1 (and main@.lr.ph_1 main@.lr.ph_0))
         main@.lr.ph_1
         (=> (and main@.lr.ph_1 main@.lr.ph_0) main@%_6_0)
         (=> (and main@.lr.ph_1 main@.lr.ph_0) (= main@%i.0.i2_1 main@%_5_0))
         (=> (and main@.lr.ph_1 main@.lr.ph_0) (= main@%sn.0.i1_1 main@%_4_0))
         (=> (and main@.lr.ph_1 main@.lr.ph_0)
             (= main@%i.0.i2_2 main@%i.0.i2_1))
         (=> (and main@.lr.ph_1 main@.lr.ph_0)
             (= main@%sn.0.i1_2 main@%sn.0.i1_1)))
    (main@.lr.ph main@%_1_0 main@%sn.0.i1_2 main@%i.0.i2_2)))
(rule (let ((a!1 (and (main@.lr.ph main@%_1_0 main@%sn.0.i1_0 main@%i.0.i2_0)
                true
                (= main@%_4_0 (+ main@%sn.0.i1_0 2))
                (= main@%_5_0 (+ main@%i.0.i2_0 1))
                (= main@%_6_0 (< main@%i.0.i2_0 main@%_1_0))
                (=> main@precall.loopexit_0
                    (and main@precall.loopexit_0 main@.lr.ph_0))
                (=> (and main@precall.loopexit_0 main@.lr.ph_0)
                    (not main@%_6_0))
                (=> (and main@precall.loopexit_0 main@.lr.ph_0)
                    (= main@%.lcssa_0 main@%_4_0))
                (=> (and main@precall.loopexit_0 main@.lr.ph_0)
                    (= main@%.lcssa_1 main@%.lcssa_0))
                (=> main@precall_0 (and main@precall_0 main@precall.loopexit_0))
                (=> (and main@precall_0 main@precall.loopexit_0)
                    (= main@%sn.0.i.lcssa_0 main@%.lcssa_1))
                (=> (and main@precall_0 main@precall.loopexit_0)
                    (= main@%sn.0.i.lcssa_1 main@%sn.0.i.lcssa_0))
                (=> main@precall_0 (= main@%_7_0 (* main@%_1_0 2)))
                (=> main@precall_0
                    (= main@%_8_0 (= main@%sn.0.i.lcssa_1 main@%_7_0)))
                (=> main@precall_0 (= main@%_9_0 (= main@%sn.0.i.lcssa_1 0)))
                (=> main@precall_0 (= main@%..i_0 (or main@%_8_0 main@%_9_0)))
                (=> main@precall_0 (not main@%_10_0))
                (=> main@precall_0 (= main@%_11_0 (= main@%..i_0 false)))
                (=> main@precall_0 main@%_11_0)
                (=> main@precall.split_0
                    (and main@precall.split_0 main@precall_0))
                main@precall.split_0)))
  (=> a!1 main@precall.split)))
(query main@precall.split)

